Maximize
 0
Subject To
 epc_0!1: +51.017397717348615 y_1!1_2!1 +97.62728831393113 y_1!2_2!1 +92.24790479556452 y_1!3_2!1 +20.583160800432537 y_1!4_2!1 -14.114346623843034 y_1!1_2!2 -92.1864191246735 y_1!2_2!2 -4.241684977914801 y_1!3_2!2 -65.83893612596063 y_1!4_2!2 -88.71788676006818 y_1!1_2!3 +85.58171384781582 y_1!2_2!3 +15.316723267689397 y_1!3_2!3 -22.84729097803691 y_1!4_2!3 -31.463742140134016 y_1!1_2!4 -73.73224407099562 y_1!2_2!4 -99.83987527207825 y_1!3_2!4 -4.135724104458816 y_1!4_2!4 + lambda_0!1 - mu_0 = 0
 epc_0!2: -9.381807523389526 y_1!1_2!1 +36.240133532906725 y_1!2_2!1 -61.33504504979974 y_1!3_2!1 -65.35012948523612 y_1!4_2!1 -29.501586917654947 y_1!1_2!2 -7.625797129051335 y_1!2_2!2 +64.14781038279986 y_1!3_2!2 -62.35135609865567 y_1!4_2!2 -57.42359388235225 y_1!1_2!3 +24.459659680597866 y_1!2_2!3 +38.93167823929352 y_1!3_2!3 +9.226750129434478 y_1!4_2!3 -28.81726304687342 y_1!1_2!4 +66.16864244577755 y_1!2_2!4 +97.2386966740369 y_1!3_2!4 +37.44726902546631 y_1!4_2!4 + lambda_0!2 - mu_0 = 0
 epc_0!3: -33.77552282501756 y_1!1_2!1 -36.80277385303861 y_1!2_2!1 -50.156239214784115 y_1!3_2!1 +48.668144062608434 y_1!4_2!1 -79.32877930123098 y_1!1_2!2 -68.02964693780389 y_1!2_2!2 -14.109747732838812 y_1!3_2!2 -66.07789977186536 y_1!4_2!2 -17.731517712144267 y_1!1_2!3 -17.238008323165957 y_1!2_2!3 -62.234327152182644 y_1!3_2!3 +58.233719796960855 y_1!4_2!3 +92.43124347011533 y_1!1_2!4 -10.117772140999932 y_1!2_2!4 +80.93501635874222 y_1!3_2!4 +36.905076606244364 y_1!4_2!4 + lambda_0!3 - mu_0 = 0
 epc_0!4: +75.41163989314433 y_1!1_2!1 -7.026094865309275 y_1!2_2!1 +67.49628356000875 y_1!3_2!1 -23.357969657422345 y_1!4_2!1 +67.13035594741584 y_1!1_2!2 +71.68680596636494 y_1!2_2!2 -39.72583497901743 y_1!3_2!2 -80.67655061229948 y_1!4_2!2 -70.55771993438867 y_1!1_2!3 -92.41430255187149 y_1!2_2!3 +93.9323799827934 y_1!3_2!3 +96.71699994823558 y_1!4_2!3 -39.97277912604584 y_1!1_2!4 -9.918252712375477 y_1!2_2!4 +64.76354461003672 y_1!3_2!4 -40.80974253910674 y_1!4_2!4 + lambda_0!4 - mu_0 = 0
 dc_0: x_0!1 + x_0!2 + x_0!3 + x_0!4 = 1
 bc_0!1: lambda_0!1 +298.3481487172066 x_0!1 <= 298.3481487172066
 bc_0!2: lambda_0!2 +298.3481487172066 x_0!2 <= 298.3481487172066
 bc_0!3: lambda_0!3 +298.3481487172066 x_0!3 <= 298.3481487172066
 bc_0!4: lambda_0!4 +298.3481487172066 x_0!4 <= 298.3481487172066
 sum_0!1: y_1!1_2!1 - x_1!1 - x_2!1 >= -1
 idk_0!1!1: y_1!1_2!1 - x_1!1 <= 0
 idk_0!1!2: y_1!1_2!1 - x_2!1 <= 0
 sum_0!2: y_1!2_2!1 - x_1!2 - x_2!1 >= -1
 idk_0!2!1: y_1!2_2!1 - x_1!2 <= 0
 idk_0!2!2: y_1!2_2!1 - x_2!1 <= 0
 sum_0!3: y_1!3_2!1 - x_1!3 - x_2!1 >= -1
 idk_0!3!1: y_1!3_2!1 - x_1!3 <= 0
 idk_0!3!2: y_1!3_2!1 - x_2!1 <= 0
 sum_0!4: y_1!4_2!1 - x_1!4 - x_2!1 >= -1
 idk_0!4!1: y_1!4_2!1 - x_1!4 <= 0
 idk_0!4!2: y_1!4_2!1 - x_2!1 <= 0
 sum_0!5: y_1!1_2!2 - x_1!1 - x_2!2 >= -1
 idk_0!5!1: y_1!1_2!2 - x_1!1 <= 0
 idk_0!5!2: y_1!1_2!2 - x_2!2 <= 0
 sum_0!6: y_1!2_2!2 - x_1!2 - x_2!2 >= -1
 idk_0!6!1: y_1!2_2!2 - x_1!2 <= 0
 idk_0!6!2: y_1!2_2!2 - x_2!2 <= 0
 sum_0!7: y_1!3_2!2 - x_1!3 - x_2!2 >= -1
 idk_0!7!1: y_1!3_2!2 - x_1!3 <= 0
 idk_0!7!2: y_1!3_2!2 - x_2!2 <= 0
 sum_0!8: y_1!4_2!2 - x_1!4 - x_2!2 >= -1
 idk_0!8!1: y_1!4_2!2 - x_1!4 <= 0
 idk_0!8!2: y_1!4_2!2 - x_2!2 <= 0
 sum_0!9: y_1!1_2!3 - x_1!1 - x_2!3 >= -1
 idk_0!9!1: y_1!1_2!3 - x_1!1 <= 0
 idk_0!9!2: y_1!1_2!3 - x_2!3 <= 0
 sum_0!10: y_1!2_2!3 - x_1!2 - x_2!3 >= -1
 idk_0!10!1: y_1!2_2!3 - x_1!2 <= 0
 idk_0!10!2: y_1!2_2!3 - x_2!3 <= 0
 sum_0!11: y_1!3_2!3 - x_1!3 - x_2!3 >= -1
 idk_0!11!1: y_1!3_2!3 - x_1!3 <= 0
 idk_0!11!2: y_1!3_2!3 - x_2!3 <= 0
 sum_0!12: y_1!4_2!3 - x_1!4 - x_2!3 >= -1
 idk_0!12!1: y_1!4_2!3 - x_1!4 <= 0
 idk_0!12!2: y_1!4_2!3 - x_2!3 <= 0
 sum_0!13: y_1!1_2!4 - x_1!1 - x_2!4 >= -1
 idk_0!13!1: y_1!1_2!4 - x_1!1 <= 0
 idk_0!13!2: y_1!1_2!4 - x_2!4 <= 0
 sum_0!14: y_1!2_2!4 - x_1!2 - x_2!4 >= -1
 idk_0!14!1: y_1!2_2!4 - x_1!2 <= 0
 idk_0!14!2: y_1!2_2!4 - x_2!4 <= 0
 sum_0!15: y_1!3_2!4 - x_1!3 - x_2!4 >= -1
 idk_0!15!1: y_1!3_2!4 - x_1!3 <= 0
 idk_0!15!2: y_1!3_2!4 - x_2!4 <= 0
 sum_0!16: y_1!4_2!4 - x_1!4 - x_2!4 >= -1
 idk_0!16!1: y_1!4_2!4 - x_1!4 <= 0
 idk_0!16!2: y_1!4_2!4 - x_2!4 <= 0
 epc_1!1: +70.12311973211877 y_0!1_2!1 -53.58079739252533 y_0!2_2!1 +99.20915718118789 y_0!3_2!1 -92.30738452239282 y_0!4_2!1 +83.40649833677199 y_0!1_2!2 +95.7679877052812 y_0!2_2!2 +60.24472267516114 y_0!3_2!2 -67.53221126214912 y_0!4_2!2 -88.74341202767857 y_0!1_2!3 -58.65236455441178 y_0!2_2!3 -59.33754566056309 y_0!3_2!3 +32.89729361339852 y_0!4_2!3 -21.23025805947441 y_0!1_2!4 +49.90851684701266 y_0!2_2!4 -69.07617612758781 y_0!3_2!4 +88.93975065121589 y_0!4_2!4 + lambda_1!1 - mu_1 = 0
 epc_1!2: -10.553021496272592 y_0!1_2!1 -33.52908327201318 y_0!2_2!1 +61.03349117459956 y_0!3_2!1 +7.474551508054276 y_0!4_2!1 -48.63847452888284 y_0!1_2!2 +21.732781226314373 y_0!2_2!2 +72.88997749019063 y_0!3_2!2 -3.4536861036995816 y_0!4_2!2 +93.17109052052263 y_0!1_2!3 -45.06979799563873 y_0!2_2!3 -20.90194789105864 y_0!3_2!3 -31.28262711062486 y_0!4_2!3 -57.46973770517314 y_0!1_2!4 +3.113856893569377 y_0!2_2!4 +10.561005732012376 y_0!3_2!4 +43.046064488914766 y_0!4_2!4 + lambda_1!2 - mu_1 = 0
 epc_1!3: -88.34375145651465 y_0!1_2!1 -58.42961259192594 y_0!2_2!1 +87.67884772879103 y_0!3_2!1 +34.61277030356692 y_0!4_2!1 -44.26922935510142 y_0!1_2!2 -30.450679264071965 y_0!2_2!2 +72.48202581217222 y_0!3_2!2 +2.7741908662495263 y_0!4_2!2 +78.14073222552341 y_0!1_2!3 -0.7088953600549388 y_0!2_2!3 +26.895691966167973 y_0!3_2!3 +5.919674301953748 y_0!4_2!3 -72.50389434616375 y_0!1_2!4 -91.4145110615194 y_0!2_2!4 -65.33768465479726 y_0!3_2!4 +77.14432005642306 y_0!4_2!4 + lambda_1!3 - mu_1 = 0
 epc_1!4: -42.875007774936336 y_0!1_2!1 +18.5488972735303 y_0!2_2!1 +55.32919351516256 y_0!3_2!1 +66.73938441260242 y_0!4_2!1 -93.5509782973791 y_0!1_2!2 +70.64262998597485 y_0!2_2!2 +65.5415743159505 y_0!3_2!2 +37.10053980915501 y_0!4_2!2 -91.29210253147917 y_0!1_2!3 +17.050819629302353 y_0!2_2!3 +39.193111588297825 y_0!3_2!3 +79.36280137939517 y_0!4_2!3 -23.123680216624138 y_0!1_2!4 +96.65559665414796 y_0!2_2!4 -99.13899153601871 y_0!3_2!4 +11.408077408820532 y_0!4_2!4 + lambda_1!4 - mu_1 = 0
 dc_1: x_1!1 + x_1!2 + x_1!3 + x_1!4 = 1
 bc_1!1: lambda_1!1 +298.3481487172066 x_1!1 <= 298.3481487172066
 bc_1!2: lambda_1!2 +298.3481487172066 x_1!2 <= 298.3481487172066
 bc_1!3: lambda_1!3 +298.3481487172066 x_1!3 <= 298.3481487172066
 bc_1!4: lambda_1!4 +298.3481487172066 x_1!4 <= 298.3481487172066
 sum_1!1: y_0!1_2!1 - x_0!1 - x_2!1 >= -1
 idk_1!1!0: y_0!1_2!1 - x_0!1 <= 0
 idk_1!1!2: y_0!1_2!1 - x_2!1 <= 0
 sum_1!2: y_0!2_2!1 - x_0!2 - x_2!1 >= -1
 idk_1!2!0: y_0!2_2!1 - x_0!2 <= 0
 idk_1!2!2: y_0!2_2!1 - x_2!1 <= 0
 sum_1!3: y_0!3_2!1 - x_0!3 - x_2!1 >= -1
 idk_1!3!0: y_0!3_2!1 - x_0!3 <= 0
 idk_1!3!2: y_0!3_2!1 - x_2!1 <= 0
 sum_1!4: y_0!4_2!1 - x_0!4 - x_2!1 >= -1
 idk_1!4!0: y_0!4_2!1 - x_0!4 <= 0
 idk_1!4!2: y_0!4_2!1 - x_2!1 <= 0
 sum_1!5: y_0!1_2!2 - x_0!1 - x_2!2 >= -1
 idk_1!5!0: y_0!1_2!2 - x_0!1 <= 0
 idk_1!5!2: y_0!1_2!2 - x_2!2 <= 0
 sum_1!6: y_0!2_2!2 - x_0!2 - x_2!2 >= -1
 idk_1!6!0: y_0!2_2!2 - x_0!2 <= 0
 idk_1!6!2: y_0!2_2!2 - x_2!2 <= 0
 sum_1!7: y_0!3_2!2 - x_0!3 - x_2!2 >= -1
 idk_1!7!0: y_0!3_2!2 - x_0!3 <= 0
 idk_1!7!2: y_0!3_2!2 - x_2!2 <= 0
 sum_1!8: y_0!4_2!2 - x_0!4 - x_2!2 >= -1
 idk_1!8!0: y_0!4_2!2 - x_0!4 <= 0
 idk_1!8!2: y_0!4_2!2 - x_2!2 <= 0
 sum_1!9: y_0!1_2!3 - x_0!1 - x_2!3 >= -1
 idk_1!9!0: y_0!1_2!3 - x_0!1 <= 0
 idk_1!9!2: y_0!1_2!3 - x_2!3 <= 0
 sum_1!10: y_0!2_2!3 - x_0!2 - x_2!3 >= -1
 idk_1!10!0: y_0!2_2!3 - x_0!2 <= 0
 idk_1!10!2: y_0!2_2!3 - x_2!3 <= 0
 sum_1!11: y_0!3_2!3 - x_0!3 - x_2!3 >= -1
 idk_1!11!0: y_0!3_2!3 - x_0!3 <= 0
 idk_1!11!2: y_0!3_2!3 - x_2!3 <= 0
 sum_1!12: y_0!4_2!3 - x_0!4 - x_2!3 >= -1
 idk_1!12!0: y_0!4_2!3 - x_0!4 <= 0
 idk_1!12!2: y_0!4_2!3 - x_2!3 <= 0
 sum_1!13: y_0!1_2!4 - x_0!1 - x_2!4 >= -1
 idk_1!13!0: y_0!1_2!4 - x_0!1 <= 0
 idk_1!13!2: y_0!1_2!4 - x_2!4 <= 0
 sum_1!14: y_0!2_2!4 - x_0!2 - x_2!4 >= -1
 idk_1!14!0: y_0!2_2!4 - x_0!2 <= 0
 idk_1!14!2: y_0!2_2!4 - x_2!4 <= 0
 sum_1!15: y_0!3_2!4 - x_0!3 - x_2!4 >= -1
 idk_1!15!0: y_0!3_2!4 - x_0!3 <= 0
 idk_1!15!2: y_0!3_2!4 - x_2!4 <= 0
 sum_1!16: y_0!4_2!4 - x_0!4 - x_2!4 >= -1
 idk_1!16!0: y_0!4_2!4 - x_0!4 <= 0
 idk_1!16!2: y_0!4_2!4 - x_2!4 <= 0
 epc_2!1: +20.95693730774117 y_0!1_1!1 +0.17715062306287166 y_0!2_1!1 +3.3290146533732496 y_0!3_1!1 +65.77762332821575 y_0!4_1!1 -31.07286954631556 y_0!1_1!2 +63.76158685667241 y_0!2_1!2 +10.322395914892724 y_0!3_1!2 -59.94645685525879 y_0!4_1!2 +18.860417136951042 y_0!1_1!3 +67.35461222112528 y_0!2_1!3 +31.659211038924326 y_0!3_1!3 -58.672317843460256 y_0!4_1!3 -9.286621400622707 y_0!1_1!4 +79.91107971132249 y_0!2_1!4 +77.49234058751168 y_0!3_1!4 +24.917069041110707 y_0!4_1!4 + lambda_2!1 - mu_2 = 0
 epc_2!2: +28.840681079492725 y_0!1_1!1 -94.05724348178867 y_0!2_1!1 -90.79676304447537 y_0!3_1!1 -25.069225253983134 y_0!4_1!1 -53.66054450013045 y_0!1_1!2 +2.5367808128825544 y_0!2_1!2 +3.268504127904876 y_0!3_1!2 +51.23461114752922 y_0!4_1!2 +13.081340226646262 y_0!1_1!3 +20.638780519240242 y_0!2_1!3 +34.72659524863161 y_0!3_1!3 -26.956829035320638 y_0!4_1!3 -29.444104006977994 y_0!1_1!4 +76.23429760080694 y_0!2_1!4 +28.309784002710188 y_0!3_1!4 -9.817025572754545 y_0!4_1!4 + lambda_2!2 - mu_2 = 0
 epc_2!3: -96.28044489363634 y_0!1_1!1 -72.43017236243314 y_0!2_1!1 +31.751948385779144 y_0!3_1!1 +47.953191652875006 y_0!4_1!1 +15.864454752611465 y_0!1_1!2 -76.18737875574467 y_0!2_1!2 -59.02208046702957 y_0!3_1!2 +25.14335370584793 y_0!4_1!2 -62.90810255139474 y_0!1_1!3 +98.5562819728816 y_0!2_1!3 -49.17439780874151 y_0!3_1!3 -82.84995509924107 y_0!4_1!3 -49.70453245160371 y_0!1_1!4 -91.66307088649967 y_0!2_1!4 +17.647203883806384 y_0!3_1!4 +47.26770497041295 y_0!4_1!4 + lambda_2!3 - mu_2 = 0
 epc_2!4: +40.62913933354628 y_0!1_1!1 +61.83252359783248 y_0!2_1!1 -98.41860367629121 y_0!3_1!1 -80.88886561720273 y_0!4_1!1 -34.743972311083 y_0!1_1!2 +49.675800554009555 y_0!2_1!2 +6.483440398576718 y_0!3_1!2 -28.23956952837196 y_0!4_1!2 -0.2562522561785414 y_0!1_1!3 -32.18098837042179 y_0!2_1!3 -45.55435366134317 y_0!3_1!3 +66.60159867833835 y_0!4_1!3 +45.79270090643229 y_0!1_1!4 +29.14655664974876 y_0!2_1!4 +19.535873428713273 y_0!3_1!4 +20.969180143842195 y_0!4_1!4 + lambda_2!4 - mu_2 = 0
 dc_2: x_2!1 + x_2!2 + x_2!3 + x_2!4 = 1
 bc_2!1: lambda_2!1 +298.3481487172066 x_2!1 <= 298.3481487172066
 bc_2!2: lambda_2!2 +298.3481487172066 x_2!2 <= 298.3481487172066
 bc_2!3: lambda_2!3 +298.3481487172066 x_2!3 <= 298.3481487172066
 bc_2!4: lambda_2!4 +298.3481487172066 x_2!4 <= 298.3481487172066
 sum_2!1: y_0!1_1!1 - x_0!1 - x_1!1 >= -1
 idk_2!1!0: y_0!1_1!1 - x_0!1 <= 0
 idk_2!1!1: y_0!1_1!1 - x_1!1 <= 0
 sum_2!2: y_0!2_1!1 - x_0!2 - x_1!1 >= -1
 idk_2!2!0: y_0!2_1!1 - x_0!2 <= 0
 idk_2!2!1: y_0!2_1!1 - x_1!1 <= 0
 sum_2!3: y_0!3_1!1 - x_0!3 - x_1!1 >= -1
 idk_2!3!0: y_0!3_1!1 - x_0!3 <= 0
 idk_2!3!1: y_0!3_1!1 - x_1!1 <= 0
 sum_2!4: y_0!4_1!1 - x_0!4 - x_1!1 >= -1
 idk_2!4!0: y_0!4_1!1 - x_0!4 <= 0
 idk_2!4!1: y_0!4_1!1 - x_1!1 <= 0
 sum_2!5: y_0!1_1!2 - x_0!1 - x_1!2 >= -1
 idk_2!5!0: y_0!1_1!2 - x_0!1 <= 0
 idk_2!5!1: y_0!1_1!2 - x_1!2 <= 0
 sum_2!6: y_0!2_1!2 - x_0!2 - x_1!2 >= -1
 idk_2!6!0: y_0!2_1!2 - x_0!2 <= 0
 idk_2!6!1: y_0!2_1!2 - x_1!2 <= 0
 sum_2!7: y_0!3_1!2 - x_0!3 - x_1!2 >= -1
 idk_2!7!0: y_0!3_1!2 - x_0!3 <= 0
 idk_2!7!1: y_0!3_1!2 - x_1!2 <= 0
 sum_2!8: y_0!4_1!2 - x_0!4 - x_1!2 >= -1
 idk_2!8!0: y_0!4_1!2 - x_0!4 <= 0
 idk_2!8!1: y_0!4_1!2 - x_1!2 <= 0
 sum_2!9: y_0!1_1!3 - x_0!1 - x_1!3 >= -1
 idk_2!9!0: y_0!1_1!3 - x_0!1 <= 0
 idk_2!9!1: y_0!1_1!3 - x_1!3 <= 0
 sum_2!10: y_0!2_1!3 - x_0!2 - x_1!3 >= -1
 idk_2!10!0: y_0!2_1!3 - x_0!2 <= 0
 idk_2!10!1: y_0!2_1!3 - x_1!3 <= 0
 sum_2!11: y_0!3_1!3 - x_0!3 - x_1!3 >= -1
 idk_2!11!0: y_0!3_1!3 - x_0!3 <= 0
 idk_2!11!1: y_0!3_1!3 - x_1!3 <= 0
 sum_2!12: y_0!4_1!3 - x_0!4 - x_1!3 >= -1
 idk_2!12!0: y_0!4_1!3 - x_0!4 <= 0
 idk_2!12!1: y_0!4_1!3 - x_1!3 <= 0
 sum_2!13: y_0!1_1!4 - x_0!1 - x_1!4 >= -1
 idk_2!13!0: y_0!1_1!4 - x_0!1 <= 0
 idk_2!13!1: y_0!1_1!4 - x_1!4 <= 0
 sum_2!14: y_0!2_1!4 - x_0!2 - x_1!4 >= -1
 idk_2!14!0: y_0!2_1!4 - x_0!2 <= 0
 idk_2!14!1: y_0!2_1!4 - x_1!4 <= 0
 sum_2!15: y_0!3_1!4 - x_0!3 - x_1!4 >= -1
 idk_2!15!0: y_0!3_1!4 - x_0!3 <= 0
 idk_2!15!1: y_0!3_1!4 - x_1!4 <= 0
 sum_2!16: y_0!4_1!4 - x_0!4 - x_1!4 >= -1
 idk_2!16!0: y_0!4_1!4 - x_0!4 <= 0
 idk_2!16!1: y_0!4_1!4 - x_1!4 <= 0
Bounds
 mu_0 free
 mu_1 free
 mu_2 free
Binary
 x_0!1 x_0!2 x_0!3 x_0!4 x_1!1 x_1!2 x_1!3 x_1!4 x_2!1 x_2!2 x_2!3 x_2!4
End
